Route #1: 49 56 46 59 8 30
Route #2: 15 47 9 34 22
Route #3: 25 35 6 26 33 2 62 42
Route #4: 39 52 19 51 21 61 10
Route #5: 41 14 58 54 12 24 43 17 11 23
Route #6: 37 57 38 53 7 20 1 18
Route #7: 50 27 36 45
Route #8: 28 29
Route #9: 48 32 13 55 5 60
Route #10: 44 16 40 3 4 31
Cost 1496
Time 0.152035
